c 
c U(n,d) graph
c graph gen seed     : 2881
c number of vertices : 50
c max number of edges: 1225
c Euclidean distance : 0.400000
c data structure     : sparse
c
c           Graph Stats
c number of vertices  : 50
c nonisolated vertices: 50
c number of edges     : 448
c edge density        : 0.365714
c max degree          : 29
c avg degree          : 17.92
c min degree          : 5
p col 50 448
e 1 48
e 1 47
e 1 46
e 1 31
e 1 29
e 1 27
e 1 25
e 1 24
e 1 21
e 1 17
e 1 13
e 1 12
e 1 3
e 1 2
e 2 48
e 2 47
e 2 46
e 2 44
e 2 38
e 2 35
e 2 32
e 2 31
e 2 30
e 2 29
e 2 27
e 2 25
e 2 24
e 2 22
e 2 21
e 2 17
e 2 13
e 2 12
e 2 11
e 2 3
e 3 48
e 3 47
e 3 46
e 3 44
e 3 38
e 3 35
e 3 32
e 3 31
e 3 30
e 3 29
e 3 27
e 3 25
e 3 24
e 3 22
e 3 21
e 3 19
e 3 17
e 3 13
e 3 12
e 3 10
e 3 9
e 4 49
e 4 45
e 4 43
e 4 38
e 4 37
e 4 35
e 4 32
e 4 30
e 4 15
e 4 14
e 4 11
e 5 50
e 5 48
e 5 40
e 5 39
e 5 34
e 5 27
e 5 26
e 5 24
e 5 22
e 5 21
e 5 20
e 5 16
e 5 13
e 5 10
e 5 9
e 5 8
e 5 7
e 5 6
e 6 50
e 6 40
e 6 39
e 6 34
e 6 26
e 6 20
e 6 16
e 6 10
e 6 9
e 6 8
e 6 7
e 7 50
e 7 44
e 7 40
e 7 39
e 7 36
e 7 34
e 7 27
e 7 26
e 7 24
e 7 23
e 7 22
e 7 21
e 7 20
e 7 19
e 7 16
e 7 10
e 7 9
e 7 8
e 8 50
e 8 44
e 8 40
e 8 39
e 8 36
e 8 34
e 8 27
e 8 26
e 8 23
e 8 22
e 8 21
e 8 20
e 8 19
e 8 16
e 8 10
e 8 9
e 9 50
e 9 48
e 9 44
e 9 40
e 9 39
e 9 38
e 9 36
e 9 34
e 9 30
e 9 29
e 9 27
e 9 26
e 9 24
e 9 23
e 9 22
e 9 21
e 9 20
e 9 19
e 9 16
e 9 13
e 9 10
e 10 50
e 10 48
e 10 44
e 10 40
e 10 39
e 10 36
e 10 34
e 10 29
e 10 27
e 10 26
e 10 24
e 10 23
e 10 22
e 10 21
e 10 20
e 10 19
e 10 16
e 10 13
e 11 47
e 11 45
e 11 38
e 11 37
e 11 35
e 11 32
e 11 30
e 11 17
e 11 15
e 11 14
e 12 48
e 12 47
e 12 46
e 12 38
e 12 31
e 12 29
e 12 27
e 12 25
e 12 24
e 12 21
e 12 17
e 12 13
e 13 48
e 13 46
e 13 31
e 13 29
e 13 27
e 13 25
e 13 24
e 13 21
e 13 17
e 14 49
e 14 47
e 14 45
e 14 43
e 14 38
e 14 37
e 14 35
e 14 32
e 14 30
e 14 15
e 15 49
e 15 47
e 15 45
e 15 43
e 15 38
e 15 37
e 15 35
e 15 32
e 15 30
e 16 50
e 16 40
e 16 39
e 16 36
e 16 34
e 16 26
e 16 23
e 16 20
e 17 48
e 17 47
e 17 46
e 17 38
e 17 35
e 17 32
e 17 31
e 17 29
e 17 27
e 17 25
e 17 24
e 18 49
e 18 42
e 18 41
e 18 33
e 18 28
e 19 49
e 19 44
e 19 43
e 19 42
e 19 41
e 19 40
e 19 39
e 19 38
e 19 36
e 19 35
e 19 34
e 19 32
e 19 30
e 19 29
e 19 28
e 19 27
e 19 26
e 19 24
e 19 23
e 19 22
e 19 21
e 19 20
e 20 50
e 20 44
e 20 40
e 20 39
e 20 36
e 20 34
e 20 27
e 20 26
e 20 23
e 20 22
e 20 21
e 21 50
e 21 48
e 21 44
e 21 40
e 21 39
e 21 38
e 21 36
e 21 35
e 21 34
e 21 31
e 21 30
e 21 29
e 21 27
e 21 26
e 21 24
e 21 23
e 21 22
e 22 50
e 22 48
e 22 44
e 22 40
e 22 39
e 22 38
e 22 36
e 22 35
e 22 34
e 22 32
e 22 30
e 22 29
e 22 28
e 22 27
e 22 26
e 22 24
e 22 23
e 23 49
e 23 44
e 23 42
e 23 41
e 23 40
e 23 39
e 23 38
e 23 36
e 23 34
e 23 30
e 23 28
e 23 26
e 24 48
e 24 47
e 24 46
e 24 44
e 24 39
e 24 38
e 24 35
e 24 34
e 24 31
e 24 29
e 24 27
e 24 26
e 24 25
e 25 48
e 25 47
e 25 46
e 25 31
e 25 29
e 25 27
e 26 50
e 26 48
e 26 44
e 26 40
e 26 39
e 26 36
e 26 34
e 26 27
e 27 50
e 27 48
e 27 46
e 27 44
e 27 39
e 27 38
e 27 34
e 27 31
e 27 29
e 28 49
e 28 44
e 28 43
e 28 42
e 28 41
e 28 40
e 28 36
e 28 33
e 28 30
e 29 48
e 29 47
e 29 46
e 29 44
e 29 38
e 29 35
e 29 32
e 29 31
e 30 49
e 30 47
e 30 45
e 30 44
e 30 43
e 30 42
e 30 41
e 30 38
e 30 37
e 30 36
e 30 35
e 30 32
e 31 48
e 31 46
e 32 49
e 32 47
e 32 45
e 32 44
e 32 43
e 32 38
e 32 37
e 32 35
e 33 49
e 33 43
e 33 42
e 33 41
e 34 50
e 34 44
e 34 40
e 34 39
e 34 36
e 35 49
e 35 47
e 35 45
e 35 44
e 35 43
e 35 38
e 35 37
e 36 49
e 36 44
e 36 42
e 36 41
e 36 40
e 36 39
e 36 38
e 37 47
e 37 45
e 37 43
e 37 38
e 38 49
e 38 47
e 38 45
e 38 44
e 38 43
e 39 50
e 39 48
e 39 44
e 39 40
e 40 50
e 40 44
e 40 41
e 41 49
e 41 44
e 41 42
e 42 49
e 42 43
e 43 49
e 43 45
e 43 44
e 44 49
e 45 49
e 45 47
e 46 48
e 46 47
